RT is False
Default write of storage_offers_DA.csv just to have a file (but constraint should be inactive)
Reading model...
...model read.
creating competitive generators file...
...competitive generators recorded.
Loading data...
.. day-ahead data with real-time VRE data read.
Compiling instance...
...instance created.
Creating Offer Mitigation (model will solve as dispatch if TRUE)...
NOTE: storage offers will not be mitigated
...storage offer mitigation file created
Converting model to MPEC...
...converted
NOTE: initial MIP solve with only storage competitive to get feasible solution
Solving...

Welcome to IBM(R) ILOG(R) CPLEX(R) Interactive Optimizer 12.9.0.0
  with Simplex, Mixed Integer & Barrier Optimizers
5725-A06 5725-A29 5724-Y48 5724-Y49 5724-Y54 5724-Y55 5655-Y21
Copyright IBM Corp. 1988, 2019.  All Rights Reserved.

Type 'help' for a list of available commands.
Type 'help' followed by a command name for more
information on commands.

CPLEX> Logfile 'cplex.log' closed.
Logfile 'C:\Users\llavin\Desktop\test826\logs\tmpy_h4orq_.cplex.log' open.
CPLEX> New value for parallel optimization mode: -1
CPLEX> New value for emphasis for MIP optimization: 1
CPLEX> New value for mixed integer optimality gap tolerance: 0.01
CPLEX> New value for integrality tolerance: 1e-12
CPLEX> New value for deterministic time limit in ticks: 75000
CPLEX> Problem 'C:\Users\llavin\Desktop\test826\logs\tmpcrfd5vzq.pyomo.lp' read.
Read time = 0.23 sec. (13.92 ticks)
CPLEX> Problem name         : C:\Users\llavin\Desktop\test826\logs\tmpcrfd5vzq.pyomo.lp
Objective sense      : Maximize
Variables            :   53809  [Nneg: 1,  Box: 22004,  Free: 4464,
                                 Binary: 27340]
Objective nonzeros   :    8978
Linear constraints   :  123253  [Less: 41346,  Greater: 59096,  Equal: 22811]
  Nonzeros           :  293287
  RHS nonzeros       :   67489

Variables            : Min LB: -5000.000        Max UB: 1000000.       
Objective nonzeros   : Min   : 0.05833333       Max   : 833.9167       
Linear constraints   :
  Nonzeros           : Min   : 0.05833333       Max   : 1000000.       
  RHS nonzeros       : Min   : 0.05833333       Max   : 1000000.       
CPLEX> CPXPARAM_Parallel                                -1
CPXPARAM_Emphasis_MIP                            1
CPXPARAM_DetTimeLimit                            75000
CPXPARAM_MIP_Tolerances_MIPGap                   0.01
CPXPARAM_MIP_Tolerances_Integrality              9.9999999999999998e-13
Tried aggregator 4 times.
MIP Presolve eliminated 88658 rows and 18916 columns.
MIP Presolve added 3400 rows and 0 columns.
MIP Presolve modified 24902 coefficients.
Aggregator did 13002 substitutions.
Reduced MIP has 24993 rows, 21337 columns, and 71321 nonzeros.
Reduced MIP has 8421 binaries, 0 generals, 0 SOSs, and 0 indicators.
Presolve time = 0.33 sec. (193.67 ticks)
Probing fixed 378 vars, tightened 4509 bounds.
Probing time = 0.06 sec. (19.63 ticks)
Tried aggregator 2 times.
MIP Presolve eliminated 853 rows and 756 columns.
MIP Presolve modified 3037 coefficients.
Aggregator did 38 substitutions.
Reduced MIP has 24102 rows, 20543 columns, and 68745 nonzeros.
Reduced MIP has 8043 binaries, 0 generals, 0 SOSs, and 0 indicators.
Presolve time = 0.11 sec. (87.80 ticks)
Probing fixed 0 vars, tightened 325 bounds.
Probing time = 0.14 sec. (23.78 ticks)
Clique table members: 43250.
MIP emphasis: integer feasibility.
MIP search method: dynamic search.
Parallel mode: opportunistic, using up to 32 threads.
Root relaxation solution time = 0.39 sec. (586.88 ticks)

        Nodes                                         Cuts/
   Node  Left     Objective  IInf  Best Integer    Best Bound    ItCnt     Gap

      0     0     3177.6862   107                   3177.6862     4876         
*     0+    0                         3099.0737     3177.6862             2.54%
*     0     0      integral     0     3177.6862     3177.6862     4895    0.00%
Elapsed time = 1.97 sec. (1569.94 ticks, tree = 0.01 MB, solutions = 2)

Root node processing (before b&c):
  Real time             =    1.99 sec. (1572.25 ticks)
Parallel b&c, 32 threads:
  Real time             =    0.00 sec. (0.00 ticks)
  Sync time (average)   =    0.00 sec.
  Wait time (average)   =    0.00 sec.
                          ------------
Total (root+branch&cut) =    1.99 sec. (1572.25 ticks)

Solution pool: 2 solutions saved.

MIP - Integer optimal solution:  Objective =  3.1776861813e+03
Solution time =    2.00 sec.  Iterations = 4895  Nodes = 0
Deterministic time = 1572.40 ticks  (786.20 ticks/sec)

CPLEX> Incumbent solution written to file 'C:\Users\llavin\Desktop\test826\logs\tmpo0usr6jr.cplex.sol'.
CPLEX> NOTE: no warmstart specified for MIP iteration, default behavior is true
NOTE: resolving with all competitive generators using storage-only solution to warmstart
Solving...

Welcome to IBM(R) ILOG(R) CPLEX(R) Interactive Optimizer 12.9.0.0
  with Simplex, Mixed Integer & Barrier Optimizers
5725-A06 5725-A29 5724-Y48 5724-Y49 5724-Y54 5724-Y55 5655-Y21
Copyright IBM Corp. 1988, 2019.  All Rights Reserved.

Type 'help' for a list of available commands.
Type 'help' followed by a command name for more
information on commands.

CPLEX> Logfile 'cplex.log' closed.
Logfile 'C:\Users\llavin\Desktop\test826\logs\tmpv2zj_t9n.cplex.log' open.
CPLEX> New value for parallel optimization mode: -1
CPLEX> New value for emphasis for MIP optimization: 1
CPLEX> New value for mixed integer optimality gap tolerance: 0.01
CPLEX> New value for integrality tolerance: 1e-12
CPLEX> New value for deterministic time limit in ticks: 75000
CPLEX> Problem 'C:\Users\llavin\Desktop\test826\logs\tmp8ga75l0j.pyomo.lp' read.
Read time = 0.22 sec. (13.94 ticks)
CPLEX> MIP start file 'C:\Users\llavin\Desktop\test826\logs\tmpepngf98j.cplex.mst' read.
CPLEX> Problem name         : C:\Users\llavin\Desktop\test826\logs\tmp8ga75l0j.pyomo.lp
Objective sense      : Maximize
Variables            :   54529  [Nneg: 1,  Box: 22724,  Free: 4464,
                                 Binary: 27340]
Objective nonzeros   :    9674
Linear constraints   :  123253  [Less: 41346,  Greater: 59096,  Equal: 22811]
  Nonzeros           :  293287
  RHS nonzeros       :   67489

Variables            : Min LB: -5000.000        Max UB: 1000000.       
Objective nonzeros   : Min   : 0.05833333       Max   : 787.5750       
Linear constraints   :
  Nonzeros           : Min   : 0.05833333       Max   : 1000000.       
  RHS nonzeros       : Min   : 0.05833333       Max   : 1000000.       
CPLEX> CPXPARAM_Parallel                                -1
CPXPARAM_Emphasis_MIP                            1
CPXPARAM_DetTimeLimit                            75000
CPXPARAM_MIP_Tolerances_MIPGap                   0.01
CPXPARAM_MIP_Tolerances_Integrality              9.9999999999999998e-13
Warning:  No solution found from 1 MIP starts.
Retaining values of one MIP start for possible repair.
Tried aggregator 4 times.
MIP Presolve eliminated 88658 rows and 19636 columns.
MIP Presolve added 3400 rows and 0 columns.
MIP Presolve modified 24902 coefficients.
Aggregator did 13002 substitutions.
Reduced MIP has 24993 rows, 21337 columns, and 71321 nonzeros.
Reduced MIP has 8421 binaries, 0 generals, 0 SOSs, and 0 indicators.
Presolve time = 0.33 sec. (194.08 ticks)
Probing fixed 378 vars, tightened 4509 bounds.
Probing time = 0.08 sec. (19.63 ticks)
Tried aggregator 2 times.
MIP Presolve eliminated 853 rows and 756 columns.
MIP Presolve modified 3037 coefficients.
Aggregator did 38 substitutions.
Reduced MIP has 24102 rows, 20543 columns, and 68745 nonzeros.
Reduced MIP has 8043 binaries, 0 generals, 0 SOSs, and 0 indicators.
Presolve time = 0.11 sec. (87.81 ticks)
Probing fixed 0 vars, tightened 325 bounds.
Probing time = 0.14 sec. (23.78 ticks)
Clique table members: 43250.
MIP emphasis: integer feasibility.
MIP search method: dynamic search.
Parallel mode: opportunistic, using up to 32 threads.
Root relaxation solution time = 0.45 sec. (649.80 ticks)

        Nodes                                         Cuts/
   Node  Left     Objective  IInf  Best Integer    Best Bound    ItCnt     Gap

      0     0   155980.0848   241                 155980.0848     5814         
      0     0   146557.7117   158                   Cuts: 124     5956         
      0     0   145781.9893   159                    Cuts: 52     6036         
      0     0   145611.4558   159                    Cuts: 39     6064         
Repair heuristic found nothing.
      0    24   124959.5021   124                     Cuts: 8     6295         
Elapsed time = 4.70 sec. (1938.97 ticks, tree = 0.02 MB, solutions = 0)
    558   202   116633.1647   110                 131646.5605     9474         
   1165   516   110476.1350   113                 131646.5605    14708         
   1727   952    -7358.1916    54                 131646.5605    22072         
   2413  1244    18161.4752   126                 131646.5605    27009         
   3094  1665    infeasible                       131646.5605    39748         
   3795  2366      722.7511    60                 131646.5605    56878         
   4517  2535     -843.0458    47                 130449.0688    60002         
   5244  2827  -106528.7944    67                 130214.0495    67773         
   5897  3810  -457211.4227    68                 130104.3436   106994         
   8196  4337    infeasible                       129753.7161   133078         
Elapsed time = 21.95 sec. (5042.98 ticks, tree = 50.07 MB, solutions = 0)
*  9546+ 2090                         2747.3148   129453.3428              --- 
  11455  2100     4165.3275    77     2747.3148   128741.7579   263373     --- 
* 11485+ 1598                         3177.6862     8129.7329           155.84%
  11485  1598        cutoff           3177.6862     8129.7329   330353  155.84%

Flow cuts applied:  6
Mixed integer rounding cuts applied:  1
Lift and project cuts applied:  2

Root node processing (before b&c):
  Real time             =    2.84 sec. (1899.35 ticks)
Parallel b&c, 32 threads:
  Real time             =   28.61 sec. (6687.03 ticks)
  Sync time (average)   =    0.78 sec.
  Wait time (average)   =    0.24 sec.
                          ------------
Total (root+branch&cut) =   31.45 sec. (8586.38 ticks)

Solution pool: 2 solutions saved.

MIP - Integer optimal solution:  Objective =  3.1776861813e+03
Solution time =   31.47 sec.  Iterations = 330356  Nodes = 11488
Deterministic time = 8586.53 ticks  (272.86 ticks/sec)

CPLEX> Incumbent solution written to file 'C:\Users\llavin\Desktop\test826\logs\tmpexct_bt5.cplex.sol'.
CPLEX> Exporting results... 
